1638342000
1638372600
1638428400
1638450900
1638514740
1638543600
1638773940
1638804600
1638860400
1638889200
1638946800
1638977400
1639036500
1639063800
1639119600
1639143900
1639378620
1639409400
1639409400
1639414560
1639465020
1639495800
1639495800
1639497600
1639551600
1639580400
1639637400
1639668600
1639668600
1639670400
1639724400
1639755000
1639983600
1640014200
1640077080
1640100600
1640162520
1640179980
1640242800
1640273400
